
%    +---------------+
% 10 | | | | | | | | |
% 9  | | | | | | | | |
% 8  | | | | | | | | |
% 7  | | | | | | | | |
% 6  | | | | | |6| | |
% 5  | | |1|1| | | | |
% 4  | | |1|1| | |5| |
% 3  | | | | | | |8| |
% 2  | |2| |4| | |7| |
% 1  | |3| | | | | | |
%    +---------------+
n=8;
m=10;
h=2;
%maxT=30;
boxNumber=8;
boxSideLen = [2, 1, 1, 1, 1, 1, 1, 1];
boxStartX  = [3, 2, 2, 4, 7, 6, 7, 7];
boxStartY  = [4, 2, 1, 2, 4, 6, 2, 3];
